ALGO = Fast
EDIFF = 1e-05
ENCUT = 520
IBRION = 2
ISIF = 3
ISMEAR = 0
ISPIN = 2
ISYM = 0
LASPH = True
LMAXMIX = 4
LORBIT = 11
LREAL = Auto
LWAVE = False
MAGMOM = 44*0.6
NCORE = 4
NELM = 100
NSW = 191
PREC = Accurate
SIGMA = 0.05
