pymatgen with grid density = 483 / number of atoms
0
Monkhorst
2 2 2
