Rb6 Li8 Y4 Cl26
1.0
11.309283 0.000128 0.000082
0.000128 11.310354 -0.000163
0.000083 -0.000163 11.309596
Rb Li Y Cl
6 8 4 26
direct
0.250004 0.249995 0.750009 Rb
0.750001 0.749995 0.250007 Rb
0.750005 0.250007 0.249999 Rb
0.250008 0.750005 0.750002 Rb
0.250004 0.750000 0.249995 Rb
0.750001 0.250002 0.749999 Rb
0.122766 0.377220 0.122775 Li
0.877226 0.622771 0.877237 Li
0.377233 0.122775 0.122773 Li
0.622770 0.877228 0.877236 Li
0.377236 0.377218 0.377221 Li
0.622774 0.622771 0.622768 Li
0.122768 0.122773 0.377230 Li
0.877232 0.877223 0.622767 Li
0.499996 0.500002 -0.000003 Y
0.000002 -0.000008 -0.000000 Y
0.000016 0.499999 0.500016 Y
0.499995 0.000009 0.500006 Y
0.478304 0.256829 0.970830 Cl
0.521710 0.743171 0.029184 Cl
0.021701 0.243170 0.970818 Cl
0.978287 0.756835 0.029180 Cl
0.021706 0.256834 0.529176 Cl
0.978294 0.743160 0.470830 Cl
0.478290 0.243166 0.529178 Cl
0.521708 0.756839 0.470830 Cl
0.970827 0.478292 0.256838 Cl
0.029171 0.521718 0.743175 Cl
0.970815 0.021721 0.243165 Cl
0.029171 0.978280 0.756829 Cl
0.529182 0.021713 0.256829 Cl
0.470830 0.978281 0.743163 Cl
0.529169 0.478300 0.243165 Cl
0.470832 0.521712 0.756825 Cl
0.256836 0.970835 0.478291 Cl
0.743168 0.029159 0.521702 Cl
0.243156 0.970841 0.021702 Cl
0.756827 0.029183 0.978292 Cl
0.256822 0.529140 0.021686 Cl
0.743160 0.470835 0.978308 Cl
0.243164 0.529170 0.478279 Cl
0.756832 0.470837 0.521691 Cl
0.249999 0.249996 0.249997 Cl
0.750001 0.749999 0.750000 Cl
