pymatgen with grid density = 1412 / number of atoms
0
Gamma
1 3 3
